NAME          
OBJSENSE MIN
ROWS
 N  OBJ
 L  c1_2
 L  c2_2
 L  c3_2
 L  c4_2
 L  c5_2
 L  c6_2
 L  c7_2
 L  c8_2
 L  c9_2
 L  c10_2
 L  c11_2
 L  c12_2
 L  c13_2
 L  c14_2
 L  c15_2
 L  c16_2
 L  c17_2
 L  c18_2
 L  c19_2
 L  c20_2
 L  c21_2
 L  c22_2
 L  c23_2
 L  c24_2
 L  c25_2
 L  c26
 L  c27
 L  c28
 L  c29
 L  c30
 L  c31
 L  c32
 L  c33
 L  c34
 L  c35
 L  c36
 L  c37
 L  c38
 L  c39
 L  c40
 L  c41
 L  c42
 L  c43
 L  c44
 L  c45
 L  c46
 L  c47
 L  c48
 L  c49
 L  c50
 L  c51
 L  c52
 L  c53
 L  c54
 L  c55
 L  c56
 L  c57
 L  c58
 L  c59
 L  c60
 L  c61
 L  c62
 L  c63
 L  c64
 L  c65
 L  c66
 L  c67
 L  c68
 L  c69
 L  c70
 L  c71
 L  c72
 L  c73
 G  c1_1
 G  c2_1
 G  c3_1
 G  c4_1
 G  c5_1
 G  c6_1
 G  c7_1
 G  c8_1
 G  c9_1
 G  c10_1
 G  c11_1
 G  c12_1
 G  c13_1
 G  c14_1
 G  c15_1
 G  c16_1
 G  c17_1
 G  c18_1
 G  c19_1
 G  c20_1
 G  c21_1
 G  c22_1
 G  c23_1
 G  c24_1
 G  c25_1
 E  c1
 E  c2
 E  c3
 E  c4
 E  c5
 E  c6
 E  c7
 E  c8
 E  c9
 E  c10
 E  c11
 E  c12
 E  c13
 E  c14
 E  c15
 E  c16
 E  c17
 E  c18
 E  c19
 E  c20
 E  c21
 E  c22
 E  c23
 E  c24
 E  c25
COLUMNS
    Qin_heat[1] c26       1
    Qin_heat[1] c2        -1
    Qin_heat[1] OBJ       1.146666667584e-6 
    Qin_heat[2] c27       1
    Qin_heat[2] c3        -1
    Qin_heat[2] OBJ       1.146666667584e-6 
    Qin_heat[3] c28       1
    Qin_heat[3] c4        -1
    Qin_heat[3] OBJ       1.146666667584e-6 
    Qin_heat[4] c29       1
    Qin_heat[4] c5        -1
    Qin_heat[4] OBJ       1.146666667584e-6 
    Qin_heat[5] c30       1
    Qin_heat[5] c6        -1
    Qin_heat[5] OBJ       1.146666667584e-6 
    Qin_heat[6] c31       1
    Qin_heat[6] c7        -1
    Qin_heat[6] OBJ       1.146666667584e-6 
    Qin_heat[7] c32       1
    Qin_heat[7] c8        -1
    Qin_heat[7] OBJ       4.199722225582e-6 
    Qin_heat[8] c33       1
    Qin_heat[8] c9        -1
    Qin_heat[8] OBJ       4.199722225582e-6 
    Qin_heat[9] c34       1
    Qin_heat[9] c10       -1
    Qin_heat[9] OBJ       4.199722225582e-6 
    Qin_heat[10] c35       1
    Qin_heat[10] c11       -1
    Qin_heat[10] OBJ       4.199722225582e-6 
    Qin_heat[11] c36       1
    Qin_heat[11] c12       -1
    Qin_heat[11] OBJ       4.199722225582e-6 
    Qin_heat[12] c37       1
    Qin_heat[12] c13       -1
    Qin_heat[12] OBJ       4.199722225582e-6 
    Qin_heat[13] c38       1
    Qin_heat[13] c14       -1
    Qin_heat[13] OBJ       4.199722225582e-6 
    Qin_heat[14] c39       1
    Qin_heat[14] c15       -1
    Qin_heat[14] OBJ       4.199722225582e-6 
    Qin_heat[15] c40       1
    Qin_heat[15] c16       -1
    Qin_heat[15] OBJ       4.199722225582e-6 
    Qin_heat[16] c41       1
    Qin_heat[16] c17       -1
    Qin_heat[16] OBJ       5.680000004544e-6 
    Qin_heat[17] c42       1
    Qin_heat[17] c18       -1
    Qin_heat[17] OBJ       5.680000004544e-6 
    Qin_heat[18] c43       1
    Qin_heat[18] c19       -1
    Qin_heat[18] OBJ       5.680000004544e-6 
    Qin_heat[19] c44       1
    Qin_heat[19] c20       -1
    Qin_heat[19] OBJ       5.680000004544e-6 
    Qin_heat[20] c45       1
    Qin_heat[20] c21       -1
    Qin_heat[20] OBJ       5.680000004544e-6 
    Qin_heat[21] c46       1
    Qin_heat[21] c22       -1
    Qin_heat[21] OBJ       1.146666667584e-6 
    Qin_heat[22] c47       1
    Qin_heat[22] c23       -1
    Qin_heat[22] OBJ       1.146666667584e-6 
    Qin_heat[23] c48       1
    Qin_heat[23] c24       -1
    Qin_heat[23] OBJ       1.146666667584e-6 
    Qin_heat[24] c49       1
    Qin_heat[24] c25       -1
    Qin_heat[24] OBJ       1.146666667584e-6 
    Qin_cool[1] c50       1
    Qin_cool[1] c2        1
    Qin_cool[1] OBJ       1.146666667584e-6 
    Qin_cool[2] c51       1
    Qin_cool[2] c3        1
    Qin_cool[2] OBJ       1.146666667584e-6 
    Qin_cool[3] c52       1
    Qin_cool[3] c4        1
    Qin_cool[3] OBJ       1.146666667584e-6 
    Qin_cool[4] c53       1
    Qin_cool[4] c5        1
    Qin_cool[4] OBJ       1.146666667584e-6 
    Qin_cool[5] c54       1
    Qin_cool[5] c6        1
    Qin_cool[5] OBJ       1.146666667584e-6 
    Qin_cool[6] c55       1
    Qin_cool[6] c7        1
    Qin_cool[6] OBJ       1.146666667584e-6 
    Qin_cool[7] c56       1
    Qin_cool[7] c8        1
    Qin_cool[7] OBJ       4.199722225582e-6 
    Qin_cool[8] c57       1
    Qin_cool[8] c9        1
    Qin_cool[8] OBJ       4.199722225582e-6 
    Qin_cool[9] c58       1
    Qin_cool[9] c10       1
    Qin_cool[9] OBJ       4.199722225582e-6 
    Qin_cool[10] c59       1
    Qin_cool[10] c11       1
    Qin_cool[10] OBJ       4.199722225582e-6 
    Qin_cool[11] c60       1
    Qin_cool[11] c12       1
    Qin_cool[11] OBJ       4.199722225582e-6 
    Qin_cool[12] c61       1
    Qin_cool[12] c13       1
    Qin_cool[12] OBJ       4.199722225582e-6 
    Qin_cool[13] c62       1
    Qin_cool[13] c14       1
    Qin_cool[13] OBJ       4.199722225582e-6 
    Qin_cool[14] c63       1
    Qin_cool[14] c15       1
    Qin_cool[14] OBJ       4.199722225582e-6 
    Qin_cool[15] c64       1
    Qin_cool[15] c16       1
    Qin_cool[15] OBJ       4.199722225582e-6 
    Qin_cool[16] c65       1
    Qin_cool[16] c17       1
    Qin_cool[16] OBJ       5.680000004544e-6 
    Qin_cool[17] c66       1
    Qin_cool[17] c18       1
    Qin_cool[17] OBJ       5.680000004544e-6 
    Qin_cool[18] c67       1
    Qin_cool[18] c19       1
    Qin_cool[18] OBJ       5.680000004544e-6 
    Qin_cool[19] c68       1
    Qin_cool[19] c20       1
    Qin_cool[19] OBJ       5.680000004544e-6 
    Qin_cool[20] c69       1
    Qin_cool[20] c21       1
    Qin_cool[20] OBJ       5.680000004544e-6 
    Qin_cool[21] c70       1
    Qin_cool[21] c22       1
    Qin_cool[21] OBJ       1.146666667584e-6 
    Qin_cool[22] c71       1
    Qin_cool[22] c23       1
    Qin_cool[22] OBJ       1.146666667584e-6 
    Qin_cool[23] c72       1
    Qin_cool[23] c24       1
    Qin_cool[23] OBJ       1.146666667584e-6 
    Qin_cool[24] c73       1
    Qin_cool[24] c25       1
    Qin_cool[24] OBJ       1.146666667584e-6 
    T_indoor[1] c1_2      1
    T_indoor[1] c26       3619440
    T_indoor[1] c50       -3619440
    T_indoor[1] c1_1      1
    T_indoor[1] c1        1
    T_indoor[1] c2        -7.231800635225854e6 
    T_indoor[2] c2_2      1
    T_indoor[2] c27       3619440
    T_indoor[2] c51       -3619440
    T_indoor[2] c2_1      1
    T_indoor[2] c2        8.709094153801925e6 
    T_indoor[2] c3        -7.231800635225854e6 
    T_indoor[3] c3_2      1
    T_indoor[3] c28       3619440
    T_indoor[3] c52       -3619440
    T_indoor[3] c3_1      1
    T_indoor[3] c3        8.709094153801925e6 
    T_indoor[3] c4        -7.231800635225854e6 
    T_indoor[4] c4_2      1
    T_indoor[4] c29       3619440
    T_indoor[4] c53       -3619440
    T_indoor[4] c4_1      1
    T_indoor[4] c4        8.709094153801925e6 
    T_indoor[4] c5        -7.231800635225854e6 
    T_indoor[5] c5_2      1
    T_indoor[5] c30       3619440
    T_indoor[5] c54       -3619440
    T_indoor[5] c5_1      1
    T_indoor[5] c5        8.709094153801925e6 
    T_indoor[5] c6        -7.231800635225854e6 
    T_indoor[6] c6_2      1
    T_indoor[6] c31       3619440
    T_indoor[6] c55       -3619440
    T_indoor[6] c6_1      1
    T_indoor[6] c6        8.709094153801925e6 
    T_indoor[6] c7        -7.231800635225854e6 
    T_indoor[7] c7_2      1
    T_indoor[7] c32       3619440
    T_indoor[7] c56       -3619440
    T_indoor[7] c7_1      1
    T_indoor[7] c7        8.709094153801925e6 
    T_indoor[7] c8        -7.231800635225854e6 
    T_indoor[8] c8_2      1
    T_indoor[8] c33       3619440
    T_indoor[8] c57       -3619440
    T_indoor[8] c8_1      1
    T_indoor[8] c8        8.709094153801925e6 
    T_indoor[8] c9        -7.231800635225854e6 
    T_indoor[9] c9_2      1
    T_indoor[9] c34       3619440
    T_indoor[9] c58       -3619440
    T_indoor[9] c9_1      1
    T_indoor[9] c9        8.709094153801925e6 
    T_indoor[9] c10       -7.231800635225854e6 
    T_indoor[10] c10_2     1
    T_indoor[10] c35       3619440
    T_indoor[10] c59       -3619440
    T_indoor[10] c10_1     1
    T_indoor[10] c10       8.709094153801925e6 
    T_indoor[10] c11       -7.231800635225854e6 
    T_indoor[11] c11_2     1
    T_indoor[11] c36       3619440
    T_indoor[11] c60       -3619440
    T_indoor[11] c11_1     1
    T_indoor[11] c11       8.709094153801925e6 
    T_indoor[11] c12       -7.231800635225854e6 
    T_indoor[12] c12_2     1
    T_indoor[12] c37       3619440
    T_indoor[12] c61       -3619440
    T_indoor[12] c12_1     1
    T_indoor[12] c12       8.709094153801925e6 
    T_indoor[12] c13       -7.231800635225854e6 
    T_indoor[13] c13_2     1
    T_indoor[13] c38       3619440
    T_indoor[13] c62       -3619440
    T_indoor[13] c13_1     1
    T_indoor[13] c13       8.709094153801925e6 
    T_indoor[13] c14       -7.231800635225854e6 
    T_indoor[14] c14_2     1
    T_indoor[14] c39       3619440
    T_indoor[14] c63       -3619440
    T_indoor[14] c14_1     1
    T_indoor[14] c14       8.709094153801925e6 
    T_indoor[14] c15       -7.231800635225854e6 
    T_indoor[15] c15_2     1
    T_indoor[15] c40       3619440
    T_indoor[15] c64       -3619440
    T_indoor[15] c15_1     1
    T_indoor[15] c15       8.709094153801925e6 
    T_indoor[15] c16       -7.231800635225854e6 
    T_indoor[16] c16_2     1
    T_indoor[16] c41       3619440
    T_indoor[16] c65       -3619440
    T_indoor[16] c16_1     1
    T_indoor[16] c16       8.709094153801925e6 
    T_indoor[16] c17       -7.231800635225854e6 
    T_indoor[17] c17_2     1
    T_indoor[17] c42       3619440
    T_indoor[17] c66       -3619440
    T_indoor[17] c17_1     1
    T_indoor[17] c17       8.709094153801925e6 
    T_indoor[17] c18       -7.231800635225854e6 
    T_indoor[18] c18_2     1
    T_indoor[18] c43       3619440
    T_indoor[18] c67       -3619440
    T_indoor[18] c18_1     1
    T_indoor[18] c18       8.709094153801925e6 
    T_indoor[18] c19       -7.231800635225854e6 
    T_indoor[19] c19_2     1
    T_indoor[19] c44       3619440
    T_indoor[19] c68       -3619440
    T_indoor[19] c19_1     1
    T_indoor[19] c19       8.709094153801925e6 
    T_indoor[19] c20       -7.231800635225854e6 
    T_indoor[20] c20_2     1
    T_indoor[20] c45       3619440
    T_indoor[20] c69       -3619440
    T_indoor[20] c20_1     1
    T_indoor[20] c20       8.709094153801925e6 
    T_indoor[20] c21       -7.231800635225854e6 
    T_indoor[21] c21_2     1
    T_indoor[21] c46       3619440
    T_indoor[21] c70       -3619440
    T_indoor[21] c21_1     1
    T_indoor[21] c21       8.709094153801925e6 
    T_indoor[21] c22       -7.231800635225854e6 
    T_indoor[22] c22_2     1
    T_indoor[22] c47       3619440
    T_indoor[22] c71       -3619440
    T_indoor[22] c22_1     1
    T_indoor[22] c22       8.709094153801925e6 
    T_indoor[22] c23       -7.231800635225854e6 
    T_indoor[23] c23_2     1
    T_indoor[23] c48       3619440
    T_indoor[23] c72       -3619440
    T_indoor[23] c23_1     1
    T_indoor[23] c23       8.709094153801925e6 
    T_indoor[23] c24       -7.231800635225854e6 
    T_indoor[24] c24_2     1
    T_indoor[24] c49       3619440
    T_indoor[24] c73       -3619440
    T_indoor[24] c24_1     1
    T_indoor[24] c24       8.709094153801925e6 
    T_indoor[24] c25       -7.231800635225854e6 
    T_indoor[25] c25_2     1
    T_indoor[25] c25_1     1
    T_indoor[25] c25       8.709094153801925e6 
RHS
    rhs       c1_2      21
    rhs       c2_2      21
    rhs       c3_2      21
    rhs       c4_2      21
    rhs       c5_2      21
    rhs       c6_2      21
    rhs       c7_2      21
    rhs       c8_2      21
    rhs       c9_2      21
    rhs       c10_2     21
    rhs       c11_2     21
    rhs       c12_2     21
    rhs       c13_2     21
    rhs       c14_2     21
    rhs       c15_2     21
    rhs       c16_2     21
    rhs       c17_2     21
    rhs       c18_2     21
    rhs       c19_2     21
    rhs       c20_2     21
    rhs       c21_2     21
    rhs       c22_2     21
    rhs       c23_2     21
    rhs       c24_2     21
    rhs       c25_2     21
    rhs       c26       180972000
    rhs       c27       180972000
    rhs       c28       180972000
    rhs       c29       180972000
    rhs       c30       180972000
    rhs       c31       180972000
    rhs       c32       180972000
    rhs       c33       180972000
    rhs       c34       180972000
    rhs       c35       180972000
    rhs       c36       180972000
    rhs       c37       180972000
    rhs       c38       180972000
    rhs       c39       180972000
    rhs       c40       180972000
    rhs       c41       180972000
    rhs       c42       180972000
    rhs       c43       180972000
    rhs       c44       180972000
    rhs       c45       180972000
    rhs       c46       180972000
    rhs       c47       180972000
    rhs       c48       180972000
    rhs       c49       180972000
    rhs       c50       -36194400
    rhs       c51       -36194400
    rhs       c52       -36194400
    rhs       c53       -36194400
    rhs       c54       -36194400
    rhs       c55       -36194400
    rhs       c56       -36194400
    rhs       c57       -36194400
    rhs       c58       -36194400
    rhs       c59       -36194400
    rhs       c60       -36194400
    rhs       c61       -36194400
    rhs       c62       -36194400
    rhs       c63       -36194400
    rhs       c64       -36194400
    rhs       c65       -36194400
    rhs       c66       -36194400
    rhs       c67       -36194400
    rhs       c68       -36194400
    rhs       c69       -36194400
    rhs       c70       -36194400
    rhs       c71       -36194400
    rhs       c72       -36194400
    rhs       c73       -36194400
    rhs       c1_1      21
    rhs       c2_1      21
    rhs       c3_1      21
    rhs       c4_1      21
    rhs       c5_1      21
    rhs       c6_1      21
    rhs       c7_1      21
    rhs       c8_1      21
    rhs       c9_1      21
    rhs       c10_1     21
    rhs       c11_1     21
    rhs       c12_1     21
    rhs       c13_1     21
    rhs       c14_1     21
    rhs       c15_1     21
    rhs       c16_1     21
    rhs       c17_1     21
    rhs       c18_1     21
    rhs       c19_1     21
    rhs       c20_1     21
    rhs       c21_1     21
    rhs       c22_1     21
    rhs       c23_1     21
    rhs       c24_1     21
    rhs       c25_1     21
    rhs       c1        21
    rhs       c2        12556995
    rhs       c3        1.1522889444893358e7 
    rhs       c4        1.1079701389320537e7 
    rhs       c5        1.0341054630032502e7 
    rhs       c6        9.750137222602071e6 
    rhs       c7        9.30694916702925e6 
    rhs       c8        9602408
    rhs       c9        1.2409265556039002e7 
    rhs       c10       1.5363852593191145e7 
    rhs       c11       17136605
    rhs       c12       1.9500274445204142e7 
    rhs       c13       24670802
    rhs       c14       28068577
    rhs       c15       30284517
    rhs       c16       32352728
    rhs       c17       34273210
    rhs       c18       35602774
    rhs       c19       35455044
    rhs       c20       35011856
    rhs       c21       32943645
    rhs       c22       28068577
    rhs       c23       24818531
    rhs       c24       2.289804953792911e7 
    rhs       c25       2.1273026667495433e7 
RANGES
BOUNDS
 LO bounds    Qin_heat[1] 0
 PL bounds    Qin_heat[1] 
 LO bounds    Qin_heat[2] 0
 PL bounds    Qin_heat[2] 
 LO bounds    Qin_heat[3] 0
 PL bounds    Qin_heat[3] 
 LO bounds    Qin_heat[4] 0
 PL bounds    Qin_heat[4] 
 LO bounds    Qin_heat[5] 0
 PL bounds    Qin_heat[5] 
 LO bounds    Qin_heat[6] 0
 PL bounds    Qin_heat[6] 
 LO bounds    Qin_heat[7] 0
 PL bounds    Qin_heat[7] 
 LO bounds    Qin_heat[8] 0
 PL bounds    Qin_heat[8] 
 LO bounds    Qin_heat[9] 0
 PL bounds    Qin_heat[9] 
 LO bounds    Qin_heat[10] 0
 PL bounds    Qin_heat[10] 
 LO bounds    Qin_heat[11] 0
 PL bounds    Qin_heat[11] 
 LO bounds    Qin_heat[12] 0
 PL bounds    Qin_heat[12] 
 LO bounds    Qin_heat[13] 0
 PL bounds    Qin_heat[13] 
 LO bounds    Qin_heat[14] 0
 PL bounds    Qin_heat[14] 
 LO bounds    Qin_heat[15] 0
 PL bounds    Qin_heat[15] 
 LO bounds    Qin_heat[16] 0
 PL bounds    Qin_heat[16] 
 LO bounds    Qin_heat[17] 0
 PL bounds    Qin_heat[17] 
 LO bounds    Qin_heat[18] 0
 PL bounds    Qin_heat[18] 
 LO bounds    Qin_heat[19] 0
 PL bounds    Qin_heat[19] 
 LO bounds    Qin_heat[20] 0
 PL bounds    Qin_heat[20] 
 LO bounds    Qin_heat[21] 0
 PL bounds    Qin_heat[21] 
 LO bounds    Qin_heat[22] 0
 PL bounds    Qin_heat[22] 
 LO bounds    Qin_heat[23] 0
 PL bounds    Qin_heat[23] 
 LO bounds    Qin_heat[24] 0
 PL bounds    Qin_heat[24] 
 LO bounds    Qin_cool[1] 0
 PL bounds    Qin_cool[1] 
 LO bounds    Qin_cool[2] 0
 PL bounds    Qin_cool[2] 
 LO bounds    Qin_cool[3] 0
 PL bounds    Qin_cool[3] 
 LO bounds    Qin_cool[4] 0
 PL bounds    Qin_cool[4] 
 LO bounds    Qin_cool[5] 0
 PL bounds    Qin_cool[5] 
 LO bounds    Qin_cool[6] 0
 PL bounds    Qin_cool[6] 
 LO bounds    Qin_cool[7] 0
 PL bounds    Qin_cool[7] 
 LO bounds    Qin_cool[8] 0
 PL bounds    Qin_cool[8] 
 LO bounds    Qin_cool[9] 0
 PL bounds    Qin_cool[9] 
 LO bounds    Qin_cool[10] 0
 PL bounds    Qin_cool[10] 
 LO bounds    Qin_cool[11] 0
 PL bounds    Qin_cool[11] 
 LO bounds    Qin_cool[12] 0
 PL bounds    Qin_cool[12] 
 LO bounds    Qin_cool[13] 0
 PL bounds    Qin_cool[13] 
 LO bounds    Qin_cool[14] 0
 PL bounds    Qin_cool[14] 
 LO bounds    Qin_cool[15] 0
 PL bounds    Qin_cool[15] 
 LO bounds    Qin_cool[16] 0
 PL bounds    Qin_cool[16] 
 LO bounds    Qin_cool[17] 0
 PL bounds    Qin_cool[17] 
 LO bounds    Qin_cool[18] 0
 PL bounds    Qin_cool[18] 
 LO bounds    Qin_cool[19] 0
 PL bounds    Qin_cool[19] 
 LO bounds    Qin_cool[20] 0
 PL bounds    Qin_cool[20] 
 LO bounds    Qin_cool[21] 0
 PL bounds    Qin_cool[21] 
 LO bounds    Qin_cool[22] 0
 PL bounds    Qin_cool[22] 
 LO bounds    Qin_cool[23] 0
 PL bounds    Qin_cool[23] 
 LO bounds    Qin_cool[24] 0
 PL bounds    Qin_cool[24] 
 FR bounds    T_indoor[1] 
 FR bounds    T_indoor[2] 
 FR bounds    T_indoor[3] 
 FR bounds    T_indoor[4] 
 FR bounds    T_indoor[5] 
 FR bounds    T_indoor[6] 
 FR bounds    T_indoor[7] 
 FR bounds    T_indoor[8] 
 FR bounds    T_indoor[9] 
 FR bounds    T_indoor[10] 
 FR bounds    T_indoor[11] 
 FR bounds    T_indoor[12] 
 FR bounds    T_indoor[13] 
 FR bounds    T_indoor[14] 
 FR bounds    T_indoor[15] 
 FR bounds    T_indoor[16] 
 FR bounds    T_indoor[17] 
 FR bounds    T_indoor[18] 
 FR bounds    T_indoor[19] 
 FR bounds    T_indoor[20] 
 FR bounds    T_indoor[21] 
 FR bounds    T_indoor[22] 
 FR bounds    T_indoor[23] 
 FR bounds    T_indoor[24] 
 FR bounds    T_indoor[25] 
ENDATA
